\Problem name: compact

Minimize
OBJROW: C
Subject To
ord(0,1):  - x(0,2) + x(0,3) >= 4
ord(0,2):  x(0,1) - x(0,3) >= 1
ord(0,3):  x(0,0) - x(0,1) >= 1
ord(1,1):  - x(1,0) + x(1,3) >= 3
ord(1,2):  x(1,2) - x(1,3) >= 5
ord(1,3):  x(1,1) - x(1,2) >= 3
ord(2,1):  - x(2,0) + x(2,3) >= 3
ord(2,2):  x(2,2) - x(2,3) >= 6
ord(2,3):  x(2,1) - x(2,2) >= 1
ord(3,1):  x(3,0) - x(3,1) >= 9
ord(3,2):  - x(3,0) + x(3,3) >= 3
ord(3,3):  x(3,2) - x(3,3) >= 1
triangle2(0,1,0):  y(0,1,0) + y(1,0,0) = 1
triangle2(0,1,1):  y(0,1,1) + y(1,0,1) = 1
triangle2(0,1,2):  y(0,1,2) + y(1,0,2) = 1
triangle2(0,1,3):  y(0,1,3) + y(1,0,3) = 1
triangle2(0,2,0):  y(0,2,0) + y(2,0,0) = 1
triangle2(0,2,1):  y(0,2,1) + y(2,0,1) = 1
triangle2(0,2,2):  y(0,2,2) + y(2,0,2) = 1
triangle2(0,2,3):  y(0,2,3) + y(2,0,3) = 1
triangle2(0,3,0):  y(0,3,0) + y(3,0,0) = 1
triangle2(0,3,1):  y(0,3,1) + y(3,0,1) = 1
triangle2(0,3,2):  y(0,3,2) + y(3,0,2) = 1
triangle2(0,3,3):  y(0,3,3) + y(3,0,3) = 1
triangle2(1,2,0):  y(1,2,0) + y(2,1,0) = 1
triangle2(1,2,1):  y(1,2,1) + y(2,1,1) = 1
triangle2(1,2,2):  y(1,2,2) + y(2,1,2) = 1
triangle2(1,2,3):  y(1,2,3) + y(2,1,3) = 1
triangle2(1,3,0):  y(1,3,0) + y(3,1,0) = 1
triangle2(1,3,1):  y(1,3,1) + y(3,1,1) = 1
triangle2(1,3,2):  y(1,3,2) + y(3,1,2) = 1
triangle2(1,3,3):  y(1,3,3) + y(3,1,3) = 1
triangle2(2,3,0):  y(2,3,0) + y(3,2,0) = 1
triangle2(2,3,1):  y(2,3,1) + y(3,2,1) = 1
triangle2(2,3,2):  y(2,3,2) + y(3,2,2) = 1
triangle2(2,3,3):  y(2,3,3) + y(3,2,3) = 1
MCLinV(0,1,0):  x(0,0) - v(0,1,0) - x(1,0) = 3
MCLinV(1,0,0):  - x(0,0) - v(1,0,0) + x(1,0) = 2
MCLin1(0,1,0):  u(0,1,0) >= -0
MCLin2(0,1,0):  -42 y(1,0,0) - u(0,1,0) <= -0
MCLin3(0,1,0):  55 y(1,0,0) + v(0,1,0) - u(0,1,0) <= 55
MCLin4(0,1,0):  55 y(1,0,0) - u(0,1,0) >= -0
MCLin5(0,1,0):  -42 y(1,0,0) + v(0,1,0) - u(0,1,0) >= -42
MCLin6(1,0,0):  u(1,0,0) >= -0
MCLin7(1,0,0):  -60 y(0,1,0) - u(1,0,0) <= -0
MCLin8(1,0,0):  37 y(0,1,0) + v(1,0,0) - u(1,0,0) <= 37
MCLin9(1,0,0):  37 y(0,1,0) - u(1,0,0) >= -0
MCLin10(1,0,0):  -60 y(0,1,0) + v(1,0,0) - u(1,0,0) >= -60
MCLinV(0,1,1):  x(0,1) - v(0,1,1) - x(1,1) = 4
MCLinV(1,0,1):  - x(0,1) - v(1,0,1) + x(1,1) = 1
MCLin1(0,1,1):  u(0,1,1) >= -0
MCLin2(0,1,1):  -55 y(1,0,1) - u(0,1,1) <= -0
MCLin3(0,1,1):  42 y(1,0,1) + v(0,1,1) - u(0,1,1) <= 42
MCLin4(0,1,1):  42 y(1,0,1) - u(0,1,1) >= -0
MCLin5(0,1,1):  -55 y(1,0,1) + v(0,1,1) - u(0,1,1) >= -55
MCLin6(1,0,1):  u(1,0,1) >= -0
MCLin7(1,0,1):  -47 y(0,1,1) - u(1,0,1) <= -0
MCLin8(1,0,1):  50 y(0,1,1) + v(1,0,1) - u(1,0,1) <= 50
MCLin9(1,0,1):  50 y(0,1,1) - u(1,0,1) >= -0
MCLin10(1,0,1):  -47 y(0,1,1) + v(1,0,1) - u(1,0,1) >= -47
MCLinV(0,1,2):  x(0,2) - v(0,1,2) - x(1,2) = 3
MCLinV(1,0,2):  - x(0,2) - v(1,0,2) + x(1,2) = 4
MCLin1(0,1,2):  u(0,1,2) >= -0
MCLin2(0,1,2):  -56 y(1,0,2) - u(0,1,2) <= -0
MCLin3(0,1,2):  41 y(1,0,2) + v(0,1,2) - u(0,1,2) <= 41
MCLin4(0,1,2):  41 y(1,0,2) - u(0,1,2) >= -0
MCLin5(0,1,2):  -56 y(1,0,2) + v(0,1,2) - u(0,1,2) >= -56
MCLin6(1,0,2):  u(1,0,2) >= -0
MCLin7(1,0,2):  -48 y(0,1,2) - u(1,0,2) <= -0
MCLin8(1,0,2):  49 y(0,1,2) + v(1,0,2) - u(1,0,2) <= 49
MCLin9(1,0,2):  49 y(0,1,2) - u(1,0,2) >= -0
MCLin10(1,0,2):  -48 y(0,1,2) + v(1,0,2) - u(1,0,2) >= -48
MCLinV(0,1,3):  x(0,3) - v(0,1,3) - x(1,3) = 5
MCLinV(1,0,3):  - x(0,3) - v(1,0,3) + x(1,3) = 1
MCLin1(0,1,3):  u(0,1,3) >= -0
MCLin2(0,1,3):  -49 y(1,0,3) - u(0,1,3) <= -0
MCLin3(0,1,3):  48 y(1,0,3) + v(0,1,3) - u(0,1,3) <= 48
MCLin4(0,1,3):  48 y(1,0,3) - u(0,1,3) >= -0
MCLin5(0,1,3):  -49 y(1,0,3) + v(0,1,3) - u(0,1,3) >= -49
MCLin6(1,0,3):  u(1,0,3) >= -0
MCLin7(1,0,3):  -54 y(0,1,3) - u(1,0,3) <= -0
MCLin8(1,0,3):  43 y(0,1,3) + v(1,0,3) - u(1,0,3) <= 43
MCLin9(1,0,3):  43 y(0,1,3) - u(1,0,3) >= -0
MCLin10(1,0,3):  -54 y(0,1,3) + v(1,0,3) - u(1,0,3) >= -54
MCLinV(0,2,0):  x(0,0) - v(0,2,0) - x(2,0) = 3
MCLinV(2,0,0):  - x(0,0) - v(2,0,0) + x(2,0) = 2
MCLin1(0,2,0):  u(0,2,0) >= -0
MCLin2(0,2,0):  -40 y(2,0,0) - u(0,2,0) <= -0
MCLin3(0,2,0):  55 y(2,0,0) + v(0,2,0) - u(0,2,0) <= 55
MCLin4(0,2,0):  55 y(2,0,0) - u(0,2,0) >= -0
MCLin5(0,2,0):  -40 y(2,0,0) + v(0,2,0) - u(0,2,0) >= -40
MCLin6(2,0,0):  u(2,0,0) >= -0
MCLin7(2,0,0):  -60 y(0,2,0) - u(2,0,0) <= -0
MCLin8(2,0,0):  35 y(0,2,0) + v(2,0,0) - u(2,0,0) <= 35
MCLin9(2,0,0):  35 y(0,2,0) - u(2,0,0) >= -0
MCLin10(2,0,0):  -60 y(0,2,0) + v(2,0,0) - u(2,0,0) >= -60
MCLinV(0,2,1):  x(0,1) - v(0,2,1) - x(2,1) = 7
MCLinV(2,0,1):  - x(0,1) - v(2,0,1) + x(2,1) = 1
MCLin1(0,2,1):  u(0,2,1) >= -0
MCLin2(0,2,1):  -55 y(2,0,1) - u(0,2,1) <= -0
MCLin3(0,2,1):  40 y(2,0,1) + v(0,2,1) - u(0,2,1) <= 40
MCLin4(0,2,1):  40 y(2,0,1) - u(0,2,1) >= -0
MCLin5(0,2,1):  -55 y(2,0,1) + v(0,2,1) - u(0,2,1) >= -55
MCLin6(2,0,1):  u(2,0,1) >= -0
MCLin7(2,0,1):  -48 y(0,2,1) - u(2,0,1) <= -0
MCLin8(2,0,1):  47 y(0,2,1) + v(2,0,1) - u(2,0,1) <= 47
MCLin9(2,0,1):  47 y(0,2,1) - u(2,0,1) >= -0
MCLin10(2,0,1):  -48 y(0,2,1) + v(2,0,1) - u(2,0,1) >= -48
MCLinV(0,2,2):  x(0,2) - v(0,2,2) - x(2,2) = 1
MCLinV(2,0,2):  - x(0,2) - v(2,0,2) + x(2,2) = 4
MCLin1(0,2,2):  u(0,2,2) >= -0
MCLin2(0,2,2):  -53 y(2,0,2) - u(0,2,2) <= -0
MCLin3(0,2,2):  42 y(2,0,2) + v(0,2,2) - u(0,2,2) <= 42
MCLin4(0,2,2):  42 y(2,0,2) - u(0,2,2) >= -0
MCLin5(0,2,2):  -53 y(2,0,2) + v(0,2,2) - u(0,2,2) >= -53
MCLin6(2,0,2):  u(2,0,2) >= -0
MCLin7(2,0,2):  -47 y(0,2,2) - u(2,0,2) <= -0
MCLin8(2,0,2):  48 y(0,2,2) + v(2,0,2) - u(2,0,2) <= 48
MCLin9(2,0,2):  48 y(0,2,2) - u(2,0,2) >= -0
MCLin10(2,0,2):  -47 y(0,2,2) + v(2,0,2) - u(2,0,2) >= -47
MCLinV(0,2,3):  x(0,3) - v(0,2,3) - x(2,3) = 6
MCLinV(2,0,3):  - x(0,3) - v(2,0,3) + x(2,3) = 1
MCLin1(0,2,3):  u(0,2,3) >= -0
MCLin2(0,2,3):  -48 y(2,0,3) - u(0,2,3) <= -0
MCLin3(0,2,3):  47 y(2,0,3) + v(0,2,3) - u(0,2,3) <= 47
MCLin4(0,2,3):  47 y(2,0,3) - u(0,2,3) >= -0
MCLin5(0,2,3):  -48 y(2,0,3) + v(0,2,3) - u(0,2,3) >= -48
MCLin6(2,0,3):  u(2,0,3) >= -0
MCLin7(2,0,3):  -54 y(0,2,3) - u(2,0,3) <= -0
MCLin8(2,0,3):  41 y(0,2,3) + v(2,0,3) - u(2,0,3) <= 41
MCLin9(2,0,3):  41 y(0,2,3) - u(2,0,3) >= -0
MCLin10(2,0,3):  -54 y(0,2,3) + v(2,0,3) - u(2,0,3) >= -54
MCLinV(0,3,0):  x(0,0) - v(0,3,0) - x(3,0) = 3
MCLinV(3,0,0):  - x(0,0) - v(3,0,0) + x(3,0) = 2
MCLin1(0,3,0):  u(0,3,0) >= -0
MCLin2(0,3,0):  -46 y(3,0,0) - u(0,3,0) <= -0
MCLin3(0,3,0):  46 y(3,0,0) + v(0,3,0) - u(0,3,0) <= 46
MCLin4(0,3,0):  46 y(3,0,0) - u(0,3,0) >= -0
MCLin5(0,3,0):  -46 y(3,0,0) + v(0,3,0) - u(0,3,0) >= -46
MCLin6(3,0,0):  u(3,0,0) >= -0
MCLin7(3,0,0):  -51 y(0,3,0) - u(3,0,0) <= -0
MCLin8(3,0,0):  41 y(0,3,0) + v(3,0,0) - u(3,0,0) <= 41
MCLin9(3,0,0):  41 y(0,3,0) - u(3,0,0) >= -0
MCLin10(3,0,0):  -51 y(0,3,0) + v(3,0,0) - u(3,0,0) >= -51
MCLinV(0,3,1):  x(0,1) - v(0,3,1) - x(3,1) = 9
MCLinV(3,0,1):  - x(0,1) - v(3,0,1) + x(3,1) = 1
MCLin1(0,3,1):  u(0,3,1) >= -0
MCLin2(0,3,1):  -44 y(3,0,1) - u(0,3,1) <= -0
MCLin3(0,3,1):  48 y(3,0,1) + v(0,3,1) - u(0,3,1) <= 48
MCLin4(0,3,1):  48 y(3,0,1) - u(0,3,1) >= -0
MCLin5(0,3,1):  -44 y(3,0,1) + v(0,3,1) - u(0,3,1) >= -44
MCLin6(3,0,1):  u(3,0,1) >= -0
MCLin7(3,0,1):  -58 y(0,3,1) - u(3,0,1) <= -0
MCLin8(3,0,1):  34 y(0,3,1) + v(3,0,1) - u(3,0,1) <= 34
MCLin9(3,0,1):  34 y(0,3,1) - u(3,0,1) >= -0
MCLin10(3,0,1):  -58 y(0,3,1) + v(3,0,1) - u(3,0,1) >= -58
MCLinV(0,3,2):  x(0,2) - v(0,3,2) - x(3,2) = 7
MCLinV(3,0,2):  - x(0,2) - v(3,0,2) + x(3,2) = 4
MCLin1(0,3,2):  u(0,3,2) >= -0
MCLin2(0,3,2):  -60 y(3,0,2) - u(0,3,2) <= -0
MCLin3(0,3,2):  32 y(3,0,2) + v(0,3,2) - u(0,3,2) <= 32
MCLin4(0,3,2):  32 y(3,0,2) - u(0,3,2) >= -0
MCLin5(0,3,2):  -60 y(3,0,2) + v(0,3,2) - u(0,3,2) >= -60
MCLin6(3,0,2):  u(3,0,2) >= -0
MCLin7(3,0,2):  -43 y(0,3,2) - u(3,0,2) <= -0
MCLin8(3,0,2):  49 y(0,3,2) + v(3,0,2) - u(3,0,2) <= 49
MCLin9(3,0,2):  49 y(0,3,2) - u(3,0,2) >= -0
MCLin10(3,0,2):  -43 y(0,3,2) + v(3,0,2) - u(3,0,2) >= -43
MCLinV(0,3,3):  x(0,3) - v(0,3,3) - x(3,3) = 1
MCLinV(3,0,3):  - x(0,3) - v(3,0,3) + x(3,3) = 1
MCLin1(0,3,3):  u(0,3,3) >= -0
MCLin2(0,3,3):  -49 y(3,0,3) - u(0,3,3) <= -0
MCLin3(0,3,3):  43 y(3,0,3) + v(0,3,3) - u(0,3,3) <= 43
MCLin4(0,3,3):  43 y(3,0,3) - u(0,3,3) >= -0
MCLin5(0,3,3):  -49 y(3,0,3) + v(0,3,3) - u(0,3,3) >= -49
MCLin6(3,0,3):  u(3,0,3) >= -0
MCLin7(3,0,3):  -45 y(0,3,3) - u(3,0,3) <= -0
MCLin8(3,0,3):  47 y(0,3,3) + v(3,0,3) - u(3,0,3) <= 47
MCLin9(3,0,3):  47 y(0,3,3) - u(3,0,3) >= -0
MCLin10(3,0,3):  -45 y(0,3,3) + v(3,0,3) - u(3,0,3) >= -45
MCLinV(1,2,0):  x(1,0) - v(1,2,0) - x(2,0) = 3
MCLinV(2,1,0):  - x(1,0) - v(2,1,0) + x(2,0) = 3
MCLin1(1,2,0):  u(1,2,0) >= -0
MCLin2(1,2,0):  -46 y(2,1,0) - u(1,2,0) <= -0
MCLin3(1,2,0):  42 y(2,1,0) + v(1,2,0) - u(1,2,0) <= 42
MCLin4(1,2,0):  42 y(2,1,0) - u(1,2,0) >= -0
MCLin5(1,2,0):  -46 y(2,1,0) + v(1,2,0) - u(1,2,0) >= -46
MCLin6(2,1,0):  u(2,1,0) >= -0
MCLin7(2,1,0):  -48 y(1,2,0) - u(2,1,0) <= -0
MCLin8(2,1,0):  40 y(1,2,0) + v(2,1,0) - u(2,1,0) <= 40
MCLin9(2,1,0):  40 y(1,2,0) - u(2,1,0) >= -0
MCLin10(2,1,0):  -48 y(1,2,0) + v(2,1,0) - u(2,1,0) >= -48
MCLinV(1,2,1):  x(1,1) - v(1,2,1) - x(2,1) = 7
MCLinV(2,1,1):  - x(1,1) - v(2,1,1) + x(2,1) = 4
MCLin1(1,2,1):  u(1,2,1) >= -0
MCLin2(1,2,1):  -49 y(2,1,1) - u(1,2,1) <= -0
MCLin3(1,2,1):  39 y(2,1,1) + v(1,2,1) - u(1,2,1) <= 39
MCLin4(1,2,1):  39 y(2,1,1) - u(1,2,1) >= -0
MCLin5(1,2,1):  -49 y(2,1,1) + v(1,2,1) - u(1,2,1) >= -49
MCLin6(2,1,1):  u(2,1,1) >= -0
MCLin7(2,1,1):  -50 y(1,2,1) - u(2,1,1) <= -0
MCLin8(2,1,1):  38 y(1,2,1) + v(2,1,1) - u(2,1,1) <= 38
MCLin9(2,1,1):  38 y(1,2,1) - u(2,1,1) >= -0
MCLin10(2,1,1):  -50 y(1,2,1) + v(2,1,1) - u(2,1,1) >= -50
MCLinV(1,2,2):  x(1,2) - v(1,2,2) - x(2,2) = 1
MCLinV(2,1,2):  - x(1,2) - v(2,1,2) + x(2,2) = 3
MCLin1(1,2,2):  u(1,2,2) >= -0
MCLin2(1,2,2):  -45 y(2,1,2) - u(1,2,2) <= -0
MCLin3(1,2,2):  43 y(2,1,2) + v(1,2,2) - u(1,2,2) <= 43
MCLin4(1,2,2):  43 y(2,1,2) - u(1,2,2) >= -0
MCLin5(1,2,2):  -45 y(2,1,2) + v(1,2,2) - u(1,2,2) >= -45
MCLin6(2,1,2):  u(2,1,2) >= -0
MCLin7(2,1,2):  -47 y(1,2,2) - u(2,1,2) <= -0
MCLin8(2,1,2):  41 y(1,2,2) + v(2,1,2) - u(2,1,2) <= 41
MCLin9(2,1,2):  41 y(1,2,2) - u(2,1,2) >= -0
MCLin10(2,1,2):  -47 y(1,2,2) + v(2,1,2) - u(2,1,2) >= -47
MCLinV(1,2,3):  x(1,3) - v(1,2,3) - x(2,3) = 6
MCLinV(2,1,3):  - x(1,3) - v(2,1,3) + x(2,3) = 5
MCLin1(1,2,3):  u(1,2,3) >= -0
MCLin2(1,2,3):  -49 y(2,1,3) - u(1,2,3) <= -0
MCLin3(1,2,3):  39 y(2,1,3) + v(1,2,3) - u(1,2,3) <= 39
MCLin4(1,2,3):  39 y(2,1,3) - u(1,2,3) >= -0
MCLin5(1,2,3):  -49 y(2,1,3) + v(1,2,3) - u(1,2,3) >= -49
MCLin6(2,1,3):  u(2,1,3) >= -0
MCLin7(2,1,3):  -50 y(1,2,3) - u(2,1,3) <= -0
MCLin8(2,1,3):  38 y(1,2,3) + v(2,1,3) - u(2,1,3) <= 38
MCLin9(2,1,3):  38 y(1,2,3) - u(2,1,3) >= -0
MCLin10(2,1,3):  -50 y(1,2,3) + v(2,1,3) - u(2,1,3) >= -50
MCLinV(1,3,0):  x(1,0) - v(1,3,0) - x(3,0) = 3
MCLinV(3,1,0):  - x(1,0) - v(3,1,0) + x(3,0) = 3
MCLin1(1,3,0):  u(1,3,0) >= -0
MCLin2(1,3,0):  -52 y(3,1,0) - u(1,3,0) <= -0
MCLin3(1,3,0):  33 y(3,1,0) + v(1,3,0) - u(1,3,0) <= 33
MCLin4(1,3,0):  33 y(3,1,0) - u(1,3,0) >= -0
MCLin5(1,3,0):  -52 y(3,1,0) + v(1,3,0) - u(1,3,0) >= -52
MCLin6(3,1,0):  u(3,1,0) >= -0
MCLin7(3,1,0):  -39 y(1,3,0) - u(3,1,0) <= -0
MCLin8(3,1,0):  46 y(1,3,0) + v(3,1,0) - u(3,1,0) <= 46
MCLin9(3,1,0):  46 y(1,3,0) - u(3,1,0) >= -0
MCLin10(3,1,0):  -39 y(1,3,0) + v(3,1,0) - u(3,1,0) >= -39
MCLinV(1,3,1):  x(1,1) - v(1,3,1) - x(3,1) = 9
MCLinV(3,1,1):  - x(1,1) - v(3,1,1) + x(3,1) = 4
MCLin1(1,3,1):  u(1,3,1) >= -0
MCLin2(1,3,1):  -38 y(3,1,1) - u(1,3,1) <= -0
MCLin3(1,3,1):  47 y(3,1,1) + v(1,3,1) - u(1,3,1) <= 47
MCLin4(1,3,1):  47 y(3,1,1) - u(1,3,1) >= -0
MCLin5(1,3,1):  -38 y(3,1,1) + v(1,3,1) - u(1,3,1) >= -38
MCLin6(3,1,1):  u(3,1,1) >= -0
MCLin7(3,1,1):  -60 y(1,3,1) - u(3,1,1) <= -0
MCLin8(3,1,1):  25 y(1,3,1) + v(3,1,1) - u(3,1,1) <= 25
MCLin9(3,1,1):  25 y(1,3,1) - u(3,1,1) >= -0
MCLin10(3,1,1):  -60 y(1,3,1) + v(3,1,1) - u(3,1,1) >= -60
MCLinV(1,3,2):  x(1,2) - v(1,3,2) - x(3,2) = 7
MCLinV(3,1,2):  - x(1,2) - v(3,1,2) + x(3,2) = 3
MCLin1(1,3,2):  u(1,3,2) >= -0
MCLin2(1,3,2):  -52 y(3,1,2) - u(1,3,2) <= -0
MCLin3(1,3,2):  33 y(3,1,2) + v(1,3,2) - u(1,3,2) <= 33
MCLin4(1,3,2):  33 y(3,1,2) - u(1,3,2) >= -0
MCLin5(1,3,2):  -52 y(3,1,2) + v(1,3,2) - u(1,3,2) >= -52
MCLin6(3,1,2):  u(3,1,2) >= -0
MCLin7(3,1,2):  -43 y(1,3,2) - u(3,1,2) <= -0
MCLin8(3,1,2):  42 y(1,3,2) + v(3,1,2) - u(3,1,2) <= 42
MCLin9(3,1,2):  42 y(1,3,2) - u(3,1,2) >= -0
MCLin10(3,1,2):  -43 y(1,3,2) + v(3,1,2) - u(3,1,2) >= -43
MCLinV(1,3,3):  x(1,3) - v(1,3,3) - x(3,3) = 1
MCLinV(3,1,3):  - x(1,3) - v(3,1,3) + x(3,3) = 5
MCLin1(1,3,3):  u(1,3,3) >= -0
MCLin2(1,3,3):  -50 y(3,1,3) - u(1,3,3) <= -0
MCLin3(1,3,3):  35 y(3,1,3) + v(1,3,3) - u(1,3,3) <= 35
MCLin4(1,3,3):  35 y(3,1,3) - u(1,3,3) >= -0
MCLin5(1,3,3):  -50 y(3,1,3) + v(1,3,3) - u(1,3,3) >= -50
MCLin6(3,1,3):  u(3,1,3) >= -0
MCLin7(3,1,3):  -41 y(1,3,3) - u(3,1,3) <= -0
MCLin8(3,1,3):  44 y(1,3,3) + v(3,1,3) - u(3,1,3) <= 44
MCLin9(3,1,3):  44 y(1,3,3) - u(3,1,3) >= -0
MCLin10(3,1,3):  -41 y(1,3,3) + v(3,1,3) - u(3,1,3) >= -41
MCLinV(2,3,0):  x(2,0) - v(2,3,0) - x(3,0) = 3
MCLinV(3,2,0):  - x(2,0) - v(3,2,0) + x(3,0) = 3
MCLin1(2,3,0):  u(2,3,0) >= -0
MCLin2(2,3,0):  -52 y(3,2,0) - u(2,3,0) <= -0
MCLin3(2,3,0):  31 y(3,2,0) + v(2,3,0) - u(2,3,0) <= 31
MCLin4(2,3,0):  31 y(3,2,0) - u(2,3,0) >= -0
MCLin5(2,3,0):  -52 y(3,2,0) + v(2,3,0) - u(2,3,0) >= -52
MCLin6(3,2,0):  u(3,2,0) >= -0
MCLin7(3,2,0):  -37 y(2,3,0) - u(3,2,0) <= -0
MCLin8(3,2,0):  46 y(2,3,0) + v(3,2,0) - u(3,2,0) <= 46
MCLin9(3,2,0):  46 y(2,3,0) - u(3,2,0) >= -0
MCLin10(3,2,0):  -37 y(2,3,0) + v(3,2,0) - u(3,2,0) >= -37
MCLinV(2,3,1):  x(2,1) - v(2,3,1) - x(3,1) = 9
MCLinV(3,2,1):  - x(2,1) - v(3,2,1) + x(3,1) = 7
MCLin1(2,3,1):  u(2,3,1) >= -0
MCLin2(2,3,1):  -39 y(3,2,1) - u(2,3,1) <= -0
MCLin3(2,3,1):  44 y(3,2,1) + v(2,3,1) - u(2,3,1) <= 44
MCLin4(2,3,1):  44 y(3,2,1) - u(2,3,1) >= -0
MCLin5(2,3,1):  -39 y(3,2,1) + v(2,3,1) - u(2,3,1) >= -39
MCLin6(3,2,1):  u(3,2,1) >= -0
MCLin7(3,2,1):  -60 y(2,3,1) - u(3,2,1) <= -0
MCLin8(3,2,1):  23 y(2,3,1) + v(3,2,1) - u(3,2,1) <= 23
MCLin9(3,2,1):  23 y(2,3,1) - u(3,2,1) >= -0
MCLin10(3,2,1):  -60 y(2,3,1) + v(3,2,1) - u(3,2,1) >= -60
MCLinV(2,3,2):  x(2,2) - v(2,3,2) - x(3,2) = 7
MCLinV(3,2,2):  - x(2,2) - v(3,2,2) + x(3,2) = 1
MCLin1(2,3,2):  u(2,3,2) >= -0
MCLin2(2,3,2):  -51 y(3,2,2) - u(2,3,2) <= -0
MCLin3(2,3,2):  32 y(3,2,2) + v(2,3,2) - u(2,3,2) <= 32
MCLin4(2,3,2):  32 y(3,2,2) - u(2,3,2) >= -0
MCLin5(2,3,2):  -51 y(3,2,2) + v(2,3,2) - u(2,3,2) >= -51
MCLin6(3,2,2):  u(3,2,2) >= -0
MCLin7(3,2,2):  -40 y(2,3,2) - u(3,2,2) <= -0
MCLin8(3,2,2):  43 y(2,3,2) + v(3,2,2) - u(3,2,2) <= 43
MCLin9(3,2,2):  43 y(2,3,2) - u(3,2,2) >= -0
MCLin10(3,2,2):  -40 y(2,3,2) + v(3,2,2) - u(3,2,2) >= -40
MCLinV(2,3,3):  x(2,3) - v(2,3,3) - x(3,3) = 1
MCLinV(3,2,3):  - x(2,3) - v(3,2,3) + x(3,3) = 6
MCLin1(2,3,3):  u(2,3,3) >= -0
MCLin2(2,3,3):  -50 y(3,2,3) - u(2,3,3) <= -0
MCLin3(2,3,3):  33 y(3,2,3) + v(2,3,3) - u(2,3,3) <= 33
MCLin4(2,3,3):  33 y(3,2,3) - u(2,3,3) >= -0
MCLin5(2,3,3):  -50 y(3,2,3) + v(2,3,3) - u(2,3,3) >= -50
MCLin6(3,2,3):  u(3,2,3) >= -0
MCLin7(3,2,3):  -40 y(2,3,3) - u(3,2,3) <= -0
MCLin8(3,2,3):  43 y(2,3,3) + v(3,2,3) - u(3,2,3) <= 43
MCLin9(3,2,3):  43 y(2,3,3) - u(3,2,3) >= -0
MCLin10(3,2,3):  -40 y(2,3,3) + v(3,2,3) - u(3,2,3) >= -40
makespan(0):  C - x(0,0) >= 2
makespan(1):  C - x(1,1) >= 4
makespan(2):  C - x(2,1) >= 7
makespan(3):  C - x(3,2) >= 7
cut_clique_0(0123,3):  0.03223 x(0,3) + 0.03484 x(1,3) + 0.04181 x(2,3) + 0.01742 x(3,3) >= 1
cut_clique_0(012,3):  0.03960 x(0,3) + 0.04950 x(1,3) + 0.05941 x(2,3) >= 1
cut_clique_0(123,3):  0.02174 x(1,3) + 0.02174 x(2,3) + 0.05435 x(3,3) >= 1
cut_clique_1(0123,3):  0.01140 x(0,3) + 0.02737 x(1,3) + 0.02851 x(2,3) + 0.03801 x(3,3) >= 1
cut_clique_2(0123,3):  0.00964 x(0,3) + 0.02797 x(1,3) + 0.02893 x(2,3) + 0.03857 x(3,3) >= 1
cut_clique_0:  0.00348 x(1,2) + 0.00811 x(3,2) + 0.00946 x(0,3) + 0.02211 x(1,3) + 0.02723 x(2,3) + 0.03090 x(3,3) >= 1
cut_clique_1:  0.00327 x(1,2) + 0.00763 x(3,2) + 0.01634 x(1,3) + 0.02027 x(2,3) + 0.04685 x(3,3) >= 1
Bounds
 0 <= C <= 60
 6 <= x(0,0) <= 58
 0 <= y(0,1,0) <= 1
 0 <= y(1,0,0) <= 1
 -42 <= v(0,1,0) <= 55
 -60 <= v(1,0,0) <= 37
 -600 <= u(0,1,0)
 -600 <= u(1,0,0)
 0 <= y(0,2,0) <= 1
 0 <= y(2,0,0) <= 1
 -40 <= v(0,2,0) <= 55
 -60 <= v(2,0,0) <= 35
 -600 <= u(0,2,0)
 -600 <= u(2,0,0)
 0 <= y(0,3,0) <= 1
 0 <= y(3,0,0) <= 1
 -46 <= v(0,3,0) <= 46
 -51 <= v(3,0,0) <= 41
 -600 <= u(0,3,0)
 -600 <= u(3,0,0)
 0 <= x(1,0) <= 45
 0 <= y(1,2,0) <= 1
 0 <= y(2,1,0) <= 1
 -46 <= v(1,2,0) <= 42
 -48 <= v(2,1,0) <= 40
 -600 <= u(1,2,0)
 -600 <= u(2,1,0)
 0 <= y(1,3,0) <= 1
 0 <= y(3,1,0) <= 1
 -52 <= v(1,3,0) <= 33
 -39 <= v(3,1,0) <= 46
 -600 <= u(1,3,0)
 -600 <= u(3,1,0)
 0 <= x(2,0) <= 43
 0 <= y(2,3,0) <= 1
 0 <= y(3,2,0) <= 1
 -52 <= v(2,3,0) <= 31
 -37 <= v(3,2,0) <= 46
 -600 <= u(2,3,0)
 -600 <= u(3,2,0)
 9 <= x(3,0) <= 49
 5 <= x(0,1) <= 57
 0 <= y(0,1,1) <= 1
 0 <= y(1,0,1) <= 1
 -55 <= v(0,1,1) <= 42
 -47 <= v(1,0,1) <= 50
 -600 <= u(0,1,1)
 -600 <= u(1,0,1)
 0 <= y(0,2,1) <= 1
 0 <= y(2,0,1) <= 1
 -55 <= v(0,2,1) <= 40
 -48 <= v(2,0,1) <= 47
 -600 <= u(0,2,1)
 -600 <= u(2,0,1)
 0 <= y(0,3,1) <= 1
 0 <= y(3,0,1) <= 1
 -44 <= v(0,3,1) <= 48
 -58 <= v(3,0,1) <= 34
 -600 <= u(0,3,1)
 -600 <= u(3,0,1)
 11 <= x(1,1) <= 56
 0 <= y(1,2,1) <= 1
 0 <= y(2,1,1) <= 1
 -49 <= v(1,2,1) <= 39
 -50 <= v(2,1,1) <= 38
 -600 <= u(1,2,1)
 -600 <= u(2,1,1)
 0 <= y(1,3,1) <= 1
 0 <= y(3,1,1) <= 1
 -38 <= v(1,3,1) <= 47
 -60 <= v(3,1,1) <= 25
 -600 <= u(1,3,1)
 -600 <= u(3,1,1)
 10 <= x(2,1) <= 53
 0 <= y(2,3,1) <= 1
 0 <= y(3,2,1) <= 1
 -39 <= v(2,3,1) <= 44
 -60 <= v(3,2,1) <= 23
 -600 <= u(2,3,1)
 -600 <= u(3,2,1)
 0 <= x(3,1) <= 40
 0 <= x(0,2) <= 52
 0 <= y(0,1,2) <= 1
 0 <= y(1,0,2) <= 1
 -56 <= v(0,1,2) <= 41
 -48 <= v(1,0,2) <= 49
 -600 <= u(0,1,2)
 -600 <= u(1,0,2)
 0 <= y(0,2,2) <= 1
 0 <= y(2,0,2) <= 1
 -53 <= v(0,2,2) <= 42
 -47 <= v(2,0,2) <= 48
 -600 <= u(0,2,2)
 -600 <= u(2,0,2)
 0 <= y(0,3,2) <= 1
 0 <= y(3,0,2) <= 1
 -60 <= v(0,3,2) <= 32
 -43 <= v(3,0,2) <= 49
 -600 <= u(0,3,2)
 -600 <= u(3,0,2)
 8 <= x(1,2) <= 53
 0 <= y(1,2,2) <= 1
 0 <= y(2,1,2) <= 1
 -45 <= v(1,2,2) <= 43
 -47 <= v(2,1,2) <= 41
 -600 <= u(1,2,2)
 -600 <= u(2,1,2)
 0 <= y(1,3,2) <= 1
 0 <= y(3,1,2) <= 1
 -52 <= v(1,3,2) <= 33
 -43 <= v(3,1,2) <= 42
 -600 <= u(1,3,2)
 -600 <= u(3,1,2)
 9 <= x(2,2) <= 52
 0 <= y(2,3,2) <= 1
 0 <= y(3,2,2) <= 1
 -51 <= v(2,3,2) <= 32
 -40 <= v(3,2,2) <= 43
 -600 <= u(2,3,2)
 -600 <= u(3,2,2)
 13 <= x(3,2) <= 53
 4 <= x(0,3) <= 56
 0 <= y(0,1,3) <= 1
 0 <= y(1,0,3) <= 1
 -49 <= v(0,1,3) <= 48
 -54 <= v(1,0,3) <= 43
 -600 <= u(0,1,3)
 -600 <= u(1,0,3)
 0 <= y(0,2,3) <= 1
 0 <= y(2,0,3) <= 1
 -48 <= v(0,2,3) <= 47
 -54 <= v(2,0,3) <= 41
 -600 <= u(0,2,3)
 -600 <= u(2,0,3)
 0 <= y(0,3,3) <= 1
 0 <= y(3,0,3) <= 1
 -49 <= v(0,3,3) <= 43
 -45 <= v(3,0,3) <= 47
 -600 <= u(0,3,3)
 -600 <= u(3,0,3)
 3 <= x(1,3) <= 48
 0 <= y(1,2,3) <= 1
 0 <= y(2,1,3) <= 1
 -49 <= v(1,2,3) <= 39
 -50 <= v(2,1,3) <= 38
 -600 <= u(1,2,3)
 -600 <= u(2,1,3)
 0 <= y(1,3,3) <= 1
 0 <= y(3,1,3) <= 1
 -50 <= v(1,3,3) <= 35
 -41 <= v(3,1,3) <= 44
 -600 <= u(1,3,3)
 -600 <= u(3,1,3)
 3 <= x(2,3) <= 46
 0 <= y(2,3,3) <= 1
 0 <= y(3,2,3) <= 1
 -50 <= v(2,3,3) <= 33
 -40 <= v(3,2,3) <= 43
 -600 <= u(2,3,3)
 -600 <= u(3,2,3)
 12 <= x(3,3) <= 52
Integers
C x(0,0) y(0,1,0) y(1,0,0) v(0,1,0) v(1,0,0) u(0,1,0) u(1,0,0) y(0,2,0) y(2,0,0) 
v(0,2,0) v(2,0,0) u(0,2,0) u(2,0,0) y(0,3,0) y(3,0,0) v(0,3,0) v(3,0,0) u(0,3,0) u(3,0,0) 
x(1,0) y(1,2,0) y(2,1,0) v(1,2,0) v(2,1,0) u(1,2,0) u(2,1,0) y(1,3,0) y(3,1,0) v(1,3,0) 
v(3,1,0) u(1,3,0) u(3,1,0) x(2,0) y(2,3,0) y(3,2,0) v(2,3,0) v(3,2,0) u(2,3,0) u(3,2,0) 
x(3,0) x(0,1) y(0,1,1) y(1,0,1) v(0,1,1) v(1,0,1) u(0,1,1) u(1,0,1) y(0,2,1) y(2,0,1) 
v(0,2,1) v(2,0,1) u(0,2,1) u(2,0,1) y(0,3,1) y(3,0,1) v(0,3,1) v(3,0,1) u(0,3,1) u(3,0,1) 
x(1,1) y(1,2,1) y(2,1,1) v(1,2,1) v(2,1,1) u(1,2,1) u(2,1,1) y(1,3,1) y(3,1,1) v(1,3,1) 
v(3,1,1) u(1,3,1) u(3,1,1) x(2,1) y(2,3,1) y(3,2,1) v(2,3,1) v(3,2,1) u(2,3,1) u(3,2,1) 
x(3,1) x(0,2) y(0,1,2) y(1,0,2) v(0,1,2) v(1,0,2) u(0,1,2) u(1,0,2) y(0,2,2) y(2,0,2) 
v(0,2,2) v(2,0,2) u(0,2,2) u(2,0,2) y(0,3,2) y(3,0,2) v(0,3,2) v(3,0,2) u(0,3,2) u(3,0,2) 
x(1,2) y(1,2,2) y(2,1,2) v(1,2,2) v(2,1,2) u(1,2,2) u(2,1,2) y(1,3,2) y(3,1,2) v(1,3,2) 
v(3,1,2) u(1,3,2) u(3,1,2) x(2,2) y(2,3,2) y(3,2,2) v(2,3,2) v(3,2,2) u(2,3,2) u(3,2,2) 
x(3,2) x(0,3) y(0,1,3) y(1,0,3) v(0,1,3) v(1,0,3) u(0,1,3) u(1,0,3) y(0,2,3) y(2,0,3) 
v(0,2,3) v(2,0,3) u(0,2,3) u(2,0,3) y(0,3,3) y(3,0,3) v(0,3,3) v(3,0,3) u(0,3,3) u(3,0,3) 
x(1,3) y(1,2,3) y(2,1,3) v(1,2,3) v(2,1,3) u(1,2,3) u(2,1,3) y(1,3,3) y(3,1,3) v(1,3,3) 
v(3,1,3) u(1,3,3) u(3,1,3) x(2,3) y(2,3,3) y(3,2,3) v(2,3,3) v(3,2,3) u(2,3,3) u(3,2,3) 
x(3,3) 
End
